words_hard_train/7611.qaiger
aag 176 24 0 1 152
2
4
8
14
22
24
32
40
54
62
88
98
106
130
140
148
212
218
224
226
234
238
260
276
352
6 2 4
10 7 9
12 11 4
16 13 14
18 12 15
20 17 19
26 23 25
28 22 24
30 27 29
34 24 32
36 25 33
38 35 37
42 39 41
44 38 40
46 43 45
48 30 46
50 28 46
52 51 45
56 37 54
58 36 55
60 57 59
64 61 63
66 60 62
68 65 67
70 52 69
72 53 68
74 71 73
76 49 75
78 48 74
80 77 79
82 20 80
84 10 15
86 85 4
90 86 88
92 87 89
94 91 93
96 73 67
100 59 98
102 58 99
104 101 103
108 105 107
110 104 106
112 109 111
114 96 113
116 97 112
118 115 117
120 119 79
122 118 78
124 121 123
126 94 125
128 93 4
132 129 130
134 128 131
136 133 135
138 117 111
142 103 140
144 102 141
146 143 145
150 147 149
152 146 148
154 151 153
156 138 155
158 139 154
160 157 159
162 123 161
164 122 160
166 163 165
168 136 166
170 127 169
172 83 170
174 31 2
176 6 8
178 177 11
180 29 47
182 181 51
184 179 182
186 178 183
188 185 187
190 175 188
192 30 3
194 193 189
196 191 195
198 21 81
200 196 199
202 137 167
204 95 124
206 203 205
208 200 206
210 172 208
214 213 4
216 92 131
220 216 219
222 214 220
228 224 226
230 225 227
232 229 231
236 144 235
240 236 239
242 232 241
244 233 240
246 243 245
248 222 247
250 223 246
252 249 251
254 159 153
256 145 234
258 257 237
262 259 261
264 258 260
266 263 265
268 255 266
270 269 265
272 237 238
274 273 241
278 275 277
280 274 276
282 279 281
284 271 282
286 285 281
288 253 286
290 252 287
292 289 291
294 270 283
296 295 285
298 254 267
300 299 269
302 300 164
304 296 302
306 292 305
308 293 304
310 307 309
312 210 311
314 221 4
316 315 212
318 314 213
320 317 319
322 297 303
324 323 305
326 321 324
328 320 325
330 327 329
332 217 4
334 333 218
336 332 219
338 335 337
340 301 165
342 341 303
344 339 342
346 338 343
348 345 347
350 331 349
352 312 350
i0 2 y1[0]
i1 2 y1[7]
i2 2 y1[1]
i3 2 y1[2]
i4 1 x2[0]
i5 1 x1[0]
i6 1 x1[1]
i7 1 x2[1]
i8 1 x1[2]
i9 1 x2[2]
i10 2 y1[3]
i11 1 x1[3]
i12 1 x2[3]
i13 2 y1[4]
i14 1 x1[4]
i15 1 x2[4]
i16 2 y1[6]
i17 2 y1[5]
i18 1 x2[7]
i19 1 x1[7]
i20 1 x1[5]
i21 1 x1[6]
i22 1 x2[5]
i23 1 x2[6]
o0 bool[0]
c
simplified
  ==
    abs
      2 y1
    add
      1
      subtract
        1 x2
        1 x1
