words_hard_train/7611.qaiger.qdimacs
p cnf 176 457
a 130 70 74 11 12 138 16 49 112 113 20 53 117 119 27 31 0
e 1 2 3 4 5 6 7 8 9 10 13 14 15 17 18 19 21 22 23 24 25 26 28 29 30 32 33 34 35 36 37 38 39 40 41 42 43 44 45 46 47 48 50 51 52 54 55 56 57 58 59 60 61 62 63 64 65 66 67 68 69 71 72 73 75 76 77 78 79 80 81 82 83 84 85 86 87 88 89 90 91 92 93 94 95 96 97 98 99 100 101 102 103 104 105 106 107 108 109 110 111 114 115 116 118 120 121 122 123 124 125 126 127 128 129 131 132 133 134 135 136 137 139 140 141 142 143 144 145 146 147 148 149 150 151 152 153 154 155 156 157 158 159 160 161 162 163 164 165 166 167 168 169 170 171 172 173 174 175 176 0
-1 -2 3 0
1 -3 0
2 -3 0
3 4 5 0
-3 -5 0
-4 -5 0
5 -2 6 0
-5 -6 0
2 -6 0
6 -7 8 0
-6 -8 0
7 -8 0
-6 7 9 0
6 -9 0
-7 -9 0
8 9 10 0
-8 -10 0
-9 -10 0
11 12 13 0
-11 -13 0
-12 -13 0
-11 -12 14 0
11 -14 0
12 -14 0
13 14 15 0
-13 -15 0
-14 -15 0
-12 -16 17 0
12 -17 0
16 -17 0
12 16 18 0
-12 -18 0
-16 -18 0
17 18 19 0
-17 -19 0
-18 -19 0
19 20 21 0
-19 -21 0
-20 -21 0
-19 -20 22 0
19 -22 0
20 -22 0
21 22 23 0
-21 -23 0
-22 -23 0
-15 -23 24 0
15 -24 0
23 -24 0
-14 -23 25 0
14 -25 0
23 -25 0
25 22 26 0
-25 -26 0
-22 -26 0
18 -27 28 0
-18 -28 0
27 -28 0
-18 27 29 0
18 -29 0
-27 -29 0
28 29 30 0
-28 -30 0
-29 -30 0
30 31 32 0
-30 -32 0
-31 -32 0
-30 -31 33 0
30 -33 0
31 -33 0
32 33 34 0
-32 -34 0
-33 -34 0
-26 34 35 0
26 -35 0
-34 -35 0
26 -34 36 0
-26 -36 0
34 -36 0
35 36 37 0
-35 -37 0
-36 -37 0
24 37 38 0
-24 -38 0
-37 -38 0
-24 -37 39 0
24 -39 0
37 -39 0
38 39 40 0
-38 -40 0
-39 -40 0
-10 -40 41 0
10 -41 0
40 -41 0
-5 7 42 0
5 -42 0
-7 -42 0
42 -2 43 0
-42 -43 0
2 -43 0
-43 -44 45 0
43 -45 0
44 -45 0
43 44 46 0
-43 -46 0
-44 -46 0
45 46 47 0
-45 -47 0
-46 -47 0
36 33 48 0
-36 -48 0
-33 -48 0
29 -49 50 0
-29 -50 0
49 -50 0
-29 49 51 0
29 -51 0
-49 -51 0
50 51 52 0
-50 -52 0
-51 -52 0
52 53 54 0
-52 -54 0
-53 -54 0
-52 -53 55 0
52 -55 0
53 -55 0
54 55 56 0
-54 -56 0
-55 -56 0
-48 56 57 0
48 -57 0
-56 -57 0
48 -56 58 0
-48 -58 0
56 -58 0
57 58 59 0
-57 -59 0
-58 -59 0
59 39 60 0
-59 -60 0
-39 -60 0
-59 -39 61 0
59 -61 0
39 -61 0
60 61 62 0
-60 -62 0
-61 -62 0
-47 62 63 0
47 -63 0
-62 -63 0
46 -2 64 0
-46 -64 0
2 -64 0
64 -65 66 0
-64 -66 0
65 -66 0
-64 65 67 0
64 -67 0
-65 -67 0
66 67 68 0
-66 -68 0
-67 -68 0
58 55 69 0
-58 -69 0
-55 -69 0
51 -70 71 0
-51 -71 0
70 -71 0
-51 70 72 0
51 -72 0
-70 -72 0
71 72 73 0
-71 -73 0
-72 -73 0
73 74 75 0
-73 -75 0
-74 -75 0
-73 -74 76 0
73 -76 0
74 -76 0
75 76 77 0
-75 -77 0
-76 -77 0
-69 77 78 0
69 -78 0
-77 -78 0
69 -77 79 0
-69 -79 0
77 -79 0
78 79 80 0
-78 -80 0
-79 -80 0
61 80 81 0
-61 -81 0
-80 -81 0
-61 -80 82 0
61 -82 0
80 -82 0
81 82 83 0
-81 -83 0
-82 -83 0
-68 -83 84 0
68 -84 0
83 -84 0
63 84 85 0
-63 -85 0
-84 -85 0
41 -85 86 0
-41 -86 0
85 -86 0
15 -1 87 0
-15 -87 0
1 -87 0
-3 -4 88 0
3 -88 0
4 -88 0
88 5 89 0
-88 -89 0
-5 -89 0
14 23 90 0
-14 -90 0
-23 -90 0
90 25 91 0
-90 -91 0
-25 -91 0
89 -91 92 0
-89 -92 0
91 -92 0
-89 91 93 0
89 -93 0
-91 -93 0
92 93 94 0
-92 -94 0
-93 -94 0
87 -94 95 0
-87 -95 0
94 -95 0
-15 1 96 0
15 -96 0
-1 -96 0
96 94 97 0
-96 -97 0
-94 -97 0
95 97 98 0
-95 -98 0
-97 -98 0
10 40 99 0
-10 -99 0
-40 -99 0
-98 99 100 0
98 -100 0
-99 -100 0
68 83 101 0
-68 -101 0
-83 -101 0
47 -62 102 0
-47 -102 0
62 -102 0
101 102 103 0
-101 -103 0
-102 -103 0
-100 -103 104 0
100 -104 0
103 -104 0
-86 -104 105 0
86 -105 0
104 -105 0
106 -2 107 0
-106 -107 0
2 -107 0
-46 65 108 0
46 -108 0
-65 -108 0
-108 109 110 0
108 -110 0
-109 -110 0
-107 -110 111 0
107 -111 0
110 -111 0
-112 -113 114 0
112 -114 0
113 -114 0
112 113 115 0
-112 -115 0
-113 -115 0
114 115 116 0
-114 -116 0
-115 -116 0
-72 117 118 0
72 -118 0
-117 -118 0
-118 119 120 0
118 -120 0
-119 -120 0
-116 120 121 0
116 -121 0
-120 -121 0
116 -120 122 0
-116 -122 0
120 -122 0
121 122 123 0
-121 -123 0
-122 -123 0
-111 123 124 0
111 -124 0
-123 -124 0
111 -123 125 0
-111 -125 0
123 -125 0
124 125 126 0
-124 -126 0
-125 -126 0
79 76 127 0
-79 -127 0
-76 -127 0
72 -117 128 0
-72 -128 0
117 -128 0
128 118 129 0
-128 -129 0
-118 -129 0
129 130 131 0
-129 -131 0
-130 -131 0
-129 -130 132 0
129 -132 0
130 -132 0
131 132 133 0
-131 -133 0
-132 -133 0
127 -133 134 0
-127 -134 0
133 -134 0
134 132 135 0
-134 -135 0
-132 -135 0
118 -119 136 0
-118 -136 0
119 -136 0
136 120 137 0
-136 -137 0
-120 -137 0
137 138 139 0
-137 -139 0
-138 -139 0
-137 -138 140 0
137 -140 0
138 -140 0
139 140 141 0
-139 -141 0
-140 -141 0
135 -141 142 0
-135 -142 0
141 -142 0
142 140 143 0
-142 -143 0
-140 -143 0
126 -143 144 0
-126 -144 0
143 -144 0
-126 143 145 0
126 -145 0
-143 -145 0
144 145 146 0
-144 -146 0
-145 -146 0
-135 141 147 0
135 -147 0
-141 -147 0
147 142 148 0
-147 -148 0
-142 -148 0
-127 133 149 0
127 -149 0
-133 -149 0
149 134 150 0
-149 -150 0
-134 -150 0
-150 -82 151 0
150 -151 0
82 -151 0
-148 -151 152 0
148 -152 0
151 -152 0
-146 152 153 0
146 -153 0
-152 -153 0
146 -152 154 0
-146 -154 0
152 -154 0
153 154 155 0
-153 -155 0
-154 -155 0
-105 155 156 0
105 -156 0
-155 -156 0
110 -2 157 0
-110 -157 0
2 -157 0
157 -106 158 0
-157 -158 0
106 -158 0
-157 106 159 0
157 -159 0
-106 -159 0
158 159 160 0
-158 -160 0
-159 -160 0
148 151 161 0
-148 -161 0
-151 -161 0
161 152 162 0
-161 -162 0
-152 -162 0
160 -162 163 0
-160 -163 0
162 -163 0
-160 162 164 0
160 -164 0
-162 -164 0
163 164 165 0
-163 -165 0
-164 -165 0
108 -2 166 0
-108 -166 0
2 -166 0
166 -109 167 0
-166 -167 0
109 -167 0
-166 109 168 0
166 -168 0
-109 -168 0
167 168 169 0
-167 -169 0
-168 -169 0
150 82 170 0
-150 -170 0
-82 -170 0
170 151 171 0
-170 -171 0
-151 -171 0
169 -171 172 0
-169 -172 0
171 -172 0
-169 171 173 0
169 -173 0
-171 -173 0
172 173 174 0
-172 -174 0
-173 -174 0
165 174 175 0
-165 -175 0
-174 -175 0
-156 -175 176 0
156 -176 0
175 -176 0
176 0
